SDVRP instances/custom_instances/p01_17_split0.vrp
NAME:p01_17_split
BEST_KNOWN: 0
COMMENT: 0
DIMENSION: 202
CAPACITY: 160
EDGE_WEIGHT_FORMAT: FUNCTION
EDGE_WEIGHT_TYPE: EXACT_2D
NODE_COORD_SECTION
1 0.00000 0.00000
2 21 39
3 21 39
4 21 39
5 21 39
6 21 39
7 -3 26
8 -3 26
9 -3 26
10 -3 26
11 -3 26
12 20 -36
13 20 -36
14 20 -36
15 -7 -9
16 -7 -9
17 -7 -9
18 11 -25
19 11 -25
20 11 -25
21 11 -25
22 11 -25
23 5 8
24 5 8
25 5 8
26 5 8
27 5 8
28 5 8
29 5 8
30 -11 30
31 -11 30
32 -11 30
33 -11 30
34 -24 -42
35 -24 -42
36 -24 -48
37 -24 -48
38 -24 -48
39 -24 -48
40 -24 -48
41 -24 -48
42 -13 17
43 -13 17
44 -13 17
45 -13 17
46 -13 17
47 31 25
48 31 25
49 31 25
50 29 -6
51 29 -6
52 29 -6
53 29 -6
54 -22 41
55 -22 41
56 -22 41
57 -22 41
58 -22 41
59 -26 -46
60 -26 -46
61 -26 -46
62 -26 -46
63 43 -3
64 43 -3
65 43 -3
66 29 1
67 29 1
68 -25 -36
69 -25 -36
70 -42 16
71 -42 16
72 -42 16
73 -42 16
74 -42 16
75 19 50
76 19 50
77 19 50
78 19 50
79 -48 15
80 -48 15
81 -48 15
82 -48 15
83 -48 15
84 21 11
85 21 11
86 21 11
87 10 -43
88 10 -43
89 10 -43
90 10 -43
91 10 -43
92 12 -39
93 12 -39
94 -47 14
95 -47 14
96 -47 14
97 -47 14
98 -47 14
99 -14 18
100 -14 18
101 -14 18
102 -14 18
103 27 2
104 27 2
105 27 2
106 14 10
107 14 10
108 14 10
109 14 10
110 -44 29
111 -44 29
112 -44 29
113 -15 -17
114 -15 -17
115 -15 -17
116 -15 -17
117 48 -18
118 48 -18
119 48 -18
120 48 -18
121 4 0
122 4 0
123 -43 -5
124 -43 -5
125 -43 -5
126 -43 -5
127 22 32
128 22 32
129 22 32
130 22 32
131 22 32
132 22 32
133 -43 -41
134 -43 -41
135 -43 -41
136 -43 -41
137 7 -46
138 7 -46
139 7 -46
140 7 -46
141 7 -46
142 7 -46
143 -48 22
144 -48 22
145 -48 22
146 -48 22
147 13 50
148 13 50
149 13 50
150 13 50
151 -26 6
152 -26 6
153 -26 6
154 -26 6
155 -7 -15
156 -7 -15
157 -7 -15
158 -12 -36
159 -12 -36
160 -12 -36
161 -12 -36
162 -38 -41
163 -38 -41
164 -38 -41
165 -38 -41
166 0 -50
167 0 -50
168 0 -50
169 0 -50
170 -36 34
171 -36 34
172 -36 34
173 -47 33
174 -47 33
175 -47 33
176 24 11
177 24 11
178 14 -36
179 14 -36
180 14 -36
181 14 -36
182 14 -36
183 -49 39
184 -49 39
185 -49 39
186 -49 39
187 -49 39
188 -11 4
189 -11 4
190 -11 4
191 -11 4
192 -11 4
193 37 32
194 37 32
195 37 32
196 37 32
197 0 36
198 0 36
199 0 36
200 0 36
201 0 36
202 0 36
DEMAND_SECTION
1 0
2 32
3 2
4 2
5 2
6 1
7 32
8 8
9 2
10 2
11 2
12 32
13 16
14 2
15 32
16 2
17 2
18 32
19 8
20 2
21 2
22 2
23 32
24 16
25 8
26 2
27 2
28 2
29 1
30 32
31 16
32 2
33 2
34 32
35 2
36 32
37 8
38 2
39 2
40 2
41 1
42 32
43 8
44 2
45 2
46 2
47 32
48 32
49 2
50 32
51 8
52 2
53 2
54 32
55 16
56 2
57 2
58 2
59 32
60 16
61 2
62 2
63 32
64 32
65 16
66 32
67 32
68 32
69 2
70 32
71 32
72 2
73 2
74 1
75 32
76 32
77 8
78 1
79 16
80 8
81 2
82 2
83 1
84 32
85 2
86 2
87 16
88 2
89 2
90 2
91 1
92 32
93 1
94 16
95 8
96 2
97 2
98 2
99 32
100 8
101 2
102 1
103 32
104 32
105 1
106 32
107 32
108 8
109 2
110 32
111 32
112 1
113 32
114 32
115 2
116 2
117 32
118 32
119 2
120 1
121 16
122 8
123 32
124 16
125 2
126 1
127 32
128 8
129 2
130 2
131 2
132 1
133 32
134 32
135 8
136 2
137 32
138 32
139 8
140 2
141 2
142 2
143 32
144 32
145 2
146 1
147 16
148 8
149 2
150 2
151 32
152 16
153 2
154 2
155 16
156 2
157 2
158 32
159 8
160 2
161 1
162 16
163 2
164 2
165 1
166 16
167 2
168 2
169 2
170 32
171 16
172 2
173 32
174 8
175 2
176 32
177 8
178 16
179 2
180 2
181 2
182 1
183 32
184 16
185 2
186 2
187 2
188 32
189 32
190 8
191 2
192 2
193 32
194 2
195 2
196 1
197 32
198 16
199 2
200 2
201 2
202 1
DEPOT_SECTION
1
-1
EOF