SDVRP instances/custom_instances/p01_17_split0.sol
201 -8 7 9 6 10 197 198 199 201 200 196 54 53 55 57 56 43 45 -15 16 14 112 115 114 113 154 155 156 -17 21 20 19 18 178 177 180 179 181 11 12 13 120 121 -22 26 30 29 31 32 98 44 41 42 -23 27 25 2 3 1 4 5 77 74 75 76 147 146 149 148 -24 28 128 127 130 129 131 126 195 194 193 192 47 46 48 -49 66 65 102 103 -52 51 50 118 119 117 116 62 64 63 104 -58 61 60 59 161 164 162 163 135 133 134 132 -67 68 34 33 36 35 37 38 40 39 159 157 158 160 -71 72 73 70 69 79 78 80 81 82 94 96 125 124 123 122 -91 92 90 86 89 87 88 136 139 140 137 141 138 168 165 167 166 -95 93 97 145 144 143 142 110 109 111 -101 100 99 170 169 171 184 185 183 182 186 172 173 174 -105 107 106 108 84 85 83 176 175 -150 152 151 153 189 190 187 188 191 0 





OBJ=
1523.923
BEST_KNOWN=
0.000